p cnf 22 8
e 1 2 0
a 3 0
e 4 0
a 5 6 7 0
e 8 9 10 0
a 11 12 13 14 15 0
e 16 0
a 17 18 0
e 19 20 21 22 0
11 20 21 -7 15 0
1 -10 -22 0
-5 -2 15 -16 -12 0
7 -1 21 -11 13 0
22 -13 14 -2 0
2 -7 10 15 0
7 12 6 5 9 0
-10 14 -22 17 1 0
